c Sudoku solution
p cnf 729 0
124 0
131 0
168 0
235 0
249 0
286 0
346 0
116 0
351 0
364 0
421 0
522 0
537 0
554 0
569 0
667 0
681 0
541 0
693 0
513 0
727 0
792 0
819 0
896 0
576 0
942 0
832 0
961 0
871 0
711 0
291 0
274 0
989 0
759 0
994 0
844 0
734 0
766 0
614 0
147 0
155 0
199 0
217 0
312 0
228 0
484 0
182 0
173 0
585 0
598 0
497 0
395 0
252 0
263 0
462 0
479 0
672 0
865 0
775 0
823 0
783 0
748 0
953 0
857 0
888 0
977 0
329 0
333 0
639 0
443 0
645 0
415 0
626 0
438 0
456 0
658 0
918 0
925 0
936 0
378 0
387 0
